(set-info :smt-lib-version 2.6)
(set-logic QF_UFLRA)
(set-info :source |
MathSat group

|)
(set-info :category "random")
(set-info :status sat)
(declare-fun x0 () Real)
(declare-fun x1 () Real)
(declare-fun x2 () Real)
(declare-fun x3 () Real)
(declare-fun x4 () Real)
(declare-fun x5 () Real)
(declare-fun x6 () Real)
(declare-fun x7 () Real)
(declare-fun x8 () Real)
(declare-fun x9 () Real)
(declare-fun x10 () Real)
(declare-fun x11 () Real)
(declare-fun x12 () Real)
(declare-fun x13 () Real)
(declare-fun x14 () Real)
(declare-fun x15 () Real)
(declare-fun x16 () Real)
(declare-fun x17 () Real)
(declare-fun x18 () Real)
(declare-fun x19 () Real)
(declare-fun x20 () Real)
(declare-fun x21 () Real)
(declare-fun x22 () Real)
(declare-fun x23 () Real)
(declare-fun x24 () Real)
(declare-fun x25 () Real)
(declare-fun x26 () Real)
(declare-fun x27 () Real)
(declare-fun x28 () Real)
(declare-fun x29 () Real)
(declare-fun x30 () Real)
(declare-fun x31 () Real)
(declare-fun x32 () Real)
(declare-fun x33 () Real)
(declare-fun x34 () Real)
(declare-fun x35 () Real)
(declare-fun x36 () Real)
(declare-fun x37 () Real)
(declare-fun x38 () Real)
(declare-fun x39 () Real)
(declare-fun f0_1 (Real) Real)
(declare-fun f0_2 (Real Real) Real)
(declare-fun f0_3 (Real Real Real) Real)
(declare-fun f0_4 (Real Real Real Real) Real)
(declare-fun P0 () Bool)
(declare-fun P1 () Bool)
(declare-fun P2 () Bool)
(declare-fun P3 () Bool)
(declare-fun P4 () Bool)
(declare-fun P5 () Bool)
(declare-fun P6 () Bool)
(declare-fun P7 () Bool)
(declare-fun P8 () Bool)
(declare-fun P9 () Bool)
(declare-fun P10 () Bool)
(declare-fun P11 () Bool)
(declare-fun P12 () Bool)
(declare-fun P13 () Bool)
(declare-fun P14 () Bool)
(declare-fun P15 () Bool)
(declare-fun P16 () Bool)
(declare-fun P17 () Bool)
(declare-fun P18 () Bool)
(declare-fun P19 () Bool)
(declare-fun P20 () Bool)
(declare-fun P21 () Bool)
(declare-fun P22 () Bool)
(declare-fun P23 () Bool)
(declare-fun P24 () Bool)
(declare-fun P25 () Bool)
(declare-fun P26 () Bool)
(declare-fun P27 () Bool)
(declare-fun P28 () Bool)
(declare-fun P29 () Bool)
(declare-fun P30 () Bool)
(declare-fun P31 () Bool)
(declare-fun P32 () Bool)
(declare-fun P33 () Bool)
(declare-fun P34 () Bool)
(declare-fun P35 () Bool)
(declare-fun P36 () Bool)
(declare-fun P37 () Bool)
(declare-fun P38 () Bool)
(declare-fun P39 () Bool)
(assert (let ((?v_49 (* 27 x9)) (?v_48 (* 20 x29))) (let ((?v_92 (< (+ (- ?v_48 ?v_49) ?v_49) 37)) (?v_134 (< (- (+ (* 32 x31) (* 6 x11)) (* 14 x37)) 2)) (?v_60 (< (- (+ (* 34 x24) (* 17 x2)) (* 3 x16)) 22)) (?v_38 (* 6 x24)) (?v_36 (< (- (+ (* 55 x26) (* 38 x22)) ?v_48) 23)) (?v_96 (* 3 x9)) (?v_12 (* 16 x2)) (?v_47 (* 50 x6)) (?v_199 (distinct (f0_2 x20 x32) (f0_2 x12 x37))) (?v_75 (= x30 x25)) (?v_115 (= (f0_2 x26 x30) (f0_1 x20))) (?v_82 (= (f0_1 x5) x19)) (?v_174 (distinct (f0_2 x29 x13) x35)) (?v_79 (distinct (f0_1 x38) (f0_2 x36 x35))) (?v_21 (f0_1 x37))) (let ((?v_29 (distinct (f0_2 x39 x35) ?v_21)) (?v_19 (distinct (f0_2 x6 x9) x14)) (?v_100 (= x24 (f0_2 x7 x27))) (?v_76 (= x30 (f0_1 x3))) (?v_8 (distinct (f0_1 x33) x14)) (?v_33 (distinct ?v_21 (f0_1 x35))) (?v_119 (distinct (f0_2 x18 x18) x7)) (?v_94 (= (f0_2 x35 x35) x17)) (?v_131 (distinct x6 x33)) (?v_200 (= (f0_2 x10 x13) (f0_1 x12))) (?v_51 (= x33 (f0_2 x36 x23))) (?v_185 (= (f0_2 x22 x2) x6)) (?v_132 (= (f0_2 x32 x2) (f0_2 x37 x13))) (?v_16 (distinct (f0_1 x0) (f0_2 x34 x30))) (?v_25 (f0_1 x24))) (let ((?v_108 (= (f0_2 x23 x34) ?v_25)) (?v_28 (f0_1 x8))) (let ((?v_31 (= ?v_28 (f0_2 x2 x3))) (?v_11 (distinct (f0_1 x15) ?v_28)) (?v_122 (distinct x35 x31)) (?v_189 (= (f0_2 x12 x11) x15)) (?v_193 (distinct x39 x27)) (?v_91 (= (f0_2 x5 x28) (f0_2 x18 x25))) (?v_207 (= x7 (f0_2 x13 x39))) (?v_72 (= (f0_2 x21 x32) x39)) (?v_4 (distinct (f0_2 x1 x0) (f0_2 x30 x28))) (?v_44 (= (f0_2 x16 x24) (f0_1 x29))) (?v_30 (= (f0_2 x8 x5) (f0_2 x30 x19))) (?v_188 (= (f0_2 x35 x2) (f0_2 x2 x10))) (?v_156 (= (f0_1 x9) (f0_2 x14 x25))) (?v_56 (= (f0_2 x9 x28) (f0_2 x0 x25))) (?v_14 (= ?v_21 (f0_2 x20 x34))) (?v_105 (distinct x7 (f0_2 x35 x24))) (?v_95 (distinct (f0_1 x2) x39)) (?v_117 (distinct (f0_1 x25) (f0_1 x22))) (?v_124 (= (f0_1 x26) ?v_25)) (?v_6 (not ?v_8)) (?v_7 (not P32)) (?v_24 (not ?v_75)) (?v_5 (not P12)) (?v_138 (not P9)) (?v_197 (not P20)) (?v_15 (not P36)) (?v_88 (not ?v_115))) (let ((?v_17 (not ?v_207)) (?v_205 (not P6)) (?v_2 (not P39)) (?v_32 (not ?v_72)) (?v_68 (not ?v_79)) (?v_175 (not ?v_56)) (?v_140 (not ?v_4)) (?v_37 (not ?v_105)) (?v_159 (not ?v_188)) (?v_181 (not ?v_119)) (?v_90 (not ?v_30)) (?v_57 (not P22)) (?v_52 (not ?v_156)) (?v_183 (not P31)) (?v_87 (not P28)) (?v_84 (not ?v_19)) (?v_146 (not ?v_11)) (?v_133 (not P30)) (?v_162 (not ?v_108)) (?v_114 (not ?v_14)) (?v_53 (not P10)) (?v_46 (not P13)) (?v_59 (not ?v_29)) (?v_26 (not ?v_124)) (?v_45 (not ?v_33)) (?v_81 (not ?v_36)) (?v_77 (not ?v_31)) (?v_41 (not ?v_199)) (?v_171 (not ?v_200)) (?v_98 (not P8)) (?v_109 (not ?v_91)) (?v_54 (not P14)) (?v_135 (not P18)) (?v_93 (not P34)) (?v_127 (not ?v_51)) (?v_101 (not P37)) (?v_130 (not P23)) (?v_201 (not ?v_60)) (?v_89 (not ?v_16)) (?v_73 (not ?v_174)) (?v_71 (not P5)) (?v_137 (not P0)) (?v_102 (not P27)) (?v_203 (not ?v_94)) (?v_143 (not ?v_100)) (?v_157 (not ?v_82)) (?v_97 (not P16)) (?v_150 (not P4)) (?v_128 (not P21)) (?v_164 (not ?v_92)) (?v_103 (not P29)) (?v_202 (not P38)) (?v_121 (not P35)) (?v_129 (not P11)) (?v_173 (not ?v_117)) (?v_165 (not P2)) (?v_126 (not ?v_122)) (?v_144 (not P33)) (?v_155 (not ?v_189)) (?v_139 (not ?v_131)) (?v_154 (not ?v_185)) (?v_161 (not P19)) (?v_163 (not ?v_134)) (?v_166 (not P26)) (?v_178 (not P1)) (?v_160 (not P24)) (?v_170 (not ?v_193)) (?v_180 (not ?v_132)) (?v_151 (not P7)) (?v_191 (not P17)) (?v_194 (not P25)) (?v_167 (not ?v_76)) (?v_177 (not ?v_44)) (?v_196 (not ?v_95)) (?v_168 (not P15)) (?v_190 (not P3)) (?v_123 (<= (+ (* 56 x10) (* 55 x27) (* 8 x33)) 29)) (?v_43 (= (- (- 0 (* 55 x31)) x12) 14))) (let ((?v_18 (not ?v_43)) (?v_113 (<= (+ (* 51 x24) (* 12 x2) (* 47 x5)) 42))) (let ((?v_195 (not ?v_113)) (?v_158 (not ?v_123)) (?v_1 (= (- (+ (* 5 x18) (* 28 x1)) ?v_38) (- 53))) (?v_64 (<= (+ (* (- 1) x24) (* 4 x12) (* 15 x21)) 53))) (let ((?v_0 (not ?v_64)) (?v_58 (< (+ (- (* (- 12) x6) (* 32 x6)) (* 55 x12)) (- 51))) (?v_206 (<= (+ (- (* 50 x22) (* 45 x8)) (* 38 x25)) (- 27)))) (let ((?v_9 (not ?v_206)) (?v_78 (< (+ (* 4 x0) (* 26 x2) (* 55 x6)) (- 35)))) (let ((?v_13 (not ?v_78)) (?v_3 (<= (+ (* (- 45) x17) (* 7 x12) (* 14 x8)) (- 19)))) (let ((?v_104 (not ?v_3)) (?v_70 (< (- (+ (* (- 56) x33) (* 26 x10)) (* 10 x14)) (- 43)))) (let ((?v_22 (not ?v_70)) (?v_67 (not ?v_1)) (?v_10 (< (- (+ (* (- 50) x16) (* 45 x33)) (* 36 x29)) 53)) (?v_142 (distinct (- (+ (* (- 51) x37) (* 48 x6)) (* 24 x8)) 15))) (let ((?v_148 (not ?v_142)) (?v_69 (< (+ (- (* (- 41) x38) (* 38 x4)) (* 22 x35)) 5))) (let ((?v_23 (not ?v_69)) (?v_39 (= (+ (* (- 6) x12) (* 4 x14) (* 48 x23)) 49))) (let ((?v_112 (not ?v_39)) (?v_40 (distinct (- (- (* 29 x33) (* 34 x23)) (* 47 x15)) (- 6))) (?v_27 (<= (+ (- (* (- 44) x6) (* 38 x35)) (* 41 x37)) 39)) (?v_63 (< (- (- (* 38 x36) ?v_12) (* 8 x17)) (- 25)))) (let ((?v_35 (not ?v_63)) (?v_169 (not ?v_10)) (?v_20 (< (+ (* (- 4) x9) (* 39 x2) (* 33 x15)) (- 50)))) (let ((?v_118 (not ?v_20)) (?v_55 (< (- (- (* 33 x30) (* 37 x15)) ?v_12) (- 22))) (?v_85 (= (- (- (* (- 22) x33) (* 18 x1)) (* 32 x34)) (- 20)))) (let ((?v_116 (not ?v_85)) (?v_34 (< (- (+ (* (- 13) x3) (* 15 x34)) (* 41 x13)) 45)) (?v_172 (not ?v_27)) (?v_66 (< (+ (* (- 2) x22) ?v_47 (* 24 x3)) 2))) (let ((?v_50 (not ?v_66)) (?v_42 (distinct (- (+ (* 14 x34) (* 21 x7)) (* 18 x12)) (- 6))) (?v_186 (not ?v_34)) (?v_149 (<= (+ (- (* (- 15) x25) (* 37 x9)) ?v_38) 49))) (let ((?v_176 (not ?v_149)) (?v_65 (<= (+ (- (* (- 7) x16) x9) (* 34 x5)) 38)) (?v_192 (not ?v_40)) (?v_74 (< (- (- 0 ?v_47) (* 10 x13)) (- 51)))) (let ((?v_62 (not ?v_74)) (?v_80 (= (+ (- (* (- 28) x13) (* 28 x6)) (* 34 x21)) (- 41))) (?v_110 (not ?v_55)) (?v_107 (not ?v_58)) (?v_61 (< (- (- (* 24 x39) (* 32 x9)) (* 19 x12)) (- 14))) (?v_83 (< (- (+ (* (- 30) x32) (* 31 x18)) (* 56 x9)) 37))) (let ((?v_198 (not ?v_83)) (?v_86 (= (+ (- (* (- 39) x6) ?v_96) (* 39 x4)) 11)) (?v_204 (not ?v_61)) (?v_153 (not ?v_65)) (?v_111 (not ?v_80)) (?v_120 (< (- (+ (* (- 7) x15) (* 2 x3)) (* 20 x9)) (- 48)))) (let ((?v_187 (not ?v_120)) (?v_182 (< (- (- (* 6 x38) (* 38 x31)) (* 30 x28)) (- 25))) (?v_106 (<= (- (+ (* (- 39) x29) (* 25 x25)) (* 55 x11)) 32)) (?v_99 (= (+ (- (* (- 44) x17) (* 7 x7)) ?v_96) (- 16))) (?v_136 (< (- (+ (* 20 x11) (* 36 x8)) 0) (- 31)))) (let ((?v_147 (not ?v_136)) (?v_141 (= (+ (* 20 x18) (* 31 x9) (* 9 x8)) (- 31)))) (let ((?v_125 (not ?v_141)) (?v_179 (not ?v_86)) (?v_152 (not ?v_106)) (?v_208 (or ?v_104 P27)) (?v_145 (not ?v_42)) (?v_184 (not ?v_182))) (and (and (and (and (and (and (and (and (and (and (and (and (and (and (and (and (and (and (and (and (and (and (and (and (and (and (and (and (and (and (and (and (and (and (and (and (and (and (and (and (and (and (and (and (and (and (and (and (and (and (and (and (and (and (and (and (and (and (and (and (and (and (and (and (and (and (and (and (and (and (and (and (and (and (and (and (and (and (and (and (and (and (and (and (and (and (and (and (and (and (and (and (and (and (and (and (and (and (and (and (and (and (and (and (and (and (and (and (and (and (and (and (and (and (and (and (and (and (and (and (and (and (and (and (and (and (and (and (and (and (and (and (and (and (and (and (and (and (and (and (and (and (and (and (and (and (and (and (and (and (and (and (and (and (and (and (and (and (and (and (and (and (and (and (and (and (and (and (and (and (and (and (and (and (and (and (and (and (and (and (and (and (and (and (and (and (and (and (and (and (and (and (and (and (and (and (and (and (and (and (and (and (and (and (and (and (and (and (and (and (and (and (and (and (and (and (and (and (and (and (and (and (and (and (and (and (and (and (and (and (and (and (and (and (and (and (and (and (and (and (and (and (and (and (and (and (and (and (and (and (and (and (and (and (and (and (and (and (and (and (and (and (and (and (and (and (and (and (and (and (and (and (and (and (and (and (and (and (and (and (and (and (and (and (and (and (and (and (and (and (and (and (and (and (and (and (and (and (and (and (and (and (and (and (and (and (and (and (and (and (and (and (and (and (and (and (and (and (and (and (and (and (and (and (and (and (and (and (and (and (and (and (and (and (and (and (and (and (and (and (and (and (and (and (and (and (and (and (and (and (and (and (and (and (and (and (and (and (and (and (and (and (and (and (and (and (and (and (and (and (and (and (and (and (and (and (and (and (and (and (and (and (and (and (and (and (and (and (and (and (and (and (and (and (and (and (and (and (and (and (and (and (and (and (and (and (and (and (and (and (and (and (and (and (and (and (and (and (and (and (and (and (and (and (and (and (and (and (and (and (and (and (and (and (and (and (and (and (and (and (and (and (and (and (and (and (and (and (and (and (and (and (and (and (and (and (and (and (and (and (and (and (and (and (and (and (and (and (and (and (and (and (and (and (and (and (and (and (and (or (or ?v_1 ?v_6) ?v_14) (or (or P26 ?v_0) P4)) (or (or ?v_7 ?v_24) ?v_5)) (or (or P20 ?v_95) ?v_138)) (or (or ?v_197 ?v_15) ?v_58)) (or (or ?v_51 ?v_88) ?v_17)) (or (or ?v_205 ?v_2) ?v_9)) (or (or ?v_32 P5) ?v_13)) (or (or ?v_104 ?v_68) ?v_22)) (or (or ?v_4 ?v_0) ?v_175)) (or (or ?v_67 ?v_16) ?v_123)) (or (or P35 ?v_10) ?v_18)) (or (or ?v_2 ?v_148) ?v_3)) (or (or ?v_23 ?v_140) ?v_5)) (or (or ?v_112 ?v_6) ?v_37)) (or (or ?v_159 ?v_7) ?v_40)) (or (or P39 ?v_8) ?v_27)) (or (or P19 ?v_35) ?v_181)) (or (or ?v_90 P23) ?v_57)) (or (or P0 ?v_52) ?v_9)) (or (or ?v_183 ?v_87) ?v_84)) (or (or ?v_169 ?v_146) ?v_134)) (or (or ?v_2 P36) ?v_11)) (or (or ?v_118 ?v_55) ?v_131)) (or (or ?v_133 ?v_162) ?v_13)) (or (or ?v_114 ?v_15) ?v_76)) (or (or ?v_16 ?v_53) ?v_46)) (or (or ?v_17 ?v_44) ?v_18)) (or (or ?v_116 P3) ?v_19)) (or (or ?v_20 ?v_34) ?v_59)) (or (or ?v_22 ?v_23) ?v_24)) (or (or ?v_26 ?v_45) ?v_122)) (or (or ?v_82 ?v_81) ?v_19)) (or (or ?v_26 ?v_172) ?v_77)) (or (or P28 ?v_29) ?v_50)) (or (or ?v_30 ?v_31) ?v_32)) (or (or ?v_60 ?v_42) ?v_33)) (or (or ?v_41 ?v_19) ?v_186)) (or (or ?v_35 ?v_171) ?v_36)) (or (or ?v_37 ?v_113) P36)) (or (or ?v_176 ?v_33) ?v_39)) (or (or P19 P10) ?v_98)) (or (or ?v_109 ?v_65) ?v_192)) (or (or ?v_41 ?v_3) P25)) (or (or ?v_42 P4) ?v_43)) (or (or ?v_29 ?v_17) ?v_54)) (or (or ?v_27 ?v_135) ?v_44)) (or (or ?v_45 ?v_46) ?v_117)) (or (or ?v_62 P13) ?v_92)) (or (or ?v_93 P20) ?v_50)) (or (or ?v_80 ?v_32) ?v_36)) (or (or ?v_127 ?v_101) P20)) (or (or P14 ?v_52) ?v_53)) (or (or ?v_1 P4) P39)) (or (or P6 ?v_54) ?v_110)) (or (or ?v_56 ?v_57) ?v_107)) (or (or ?v_42 ?v_59) ?v_130)) (or (or ?v_61 P29) ?v_198)) (or (or ?v_201 P11) ?v_86)) (or (or ?v_204 ?v_62) ?v_4)) (or (or ?v_63 ?v_63) ?v_89)) (or (or ?v_73 ?v_64) ?v_71)) (or (or ?v_153 ?v_66) ?v_67)) (or (or ?v_68 P5) P37)) (or (or ?v_69 ?v_45) ?v_70)) (or (or P24 ?v_132) ?v_71)) (or (or ?v_72 ?v_73) ?v_74)) (or (or ?v_75 ?v_20) ?v_76)) (or (or P33 P37) ?v_137)) (or (or ?v_77 ?v_78) P32)) (or (or ?v_79 ?v_102) ?v_111)) (or (or ?v_203 P26) ?v_64)) (or (or ?v_80 P23) P15)) (or (or ?v_42 P12) ?v_143)) (or (or ?v_187 ?v_81) ?v_157)) (or (or ?v_97 ?v_83) P34)) (or (or ?v_9 ?v_84) ?v_44)) (or (or ?v_85 ?v_43) ?v_182)) (or (or ?v_10 ?v_15) ?v_3)) (or (or ?v_86 ?v_150) ?v_84)) (or (or P4 ?v_71) ?v_87)) (or (or ?v_40 ?v_88) P27)) (or (or P15 P19) ?v_89)) (or (or ?v_90 ?v_29) ?v_45)) (or (or P20 ?v_128) ?v_91)) (or (or ?v_62 ?v_164) ?v_0)) (or (or ?v_0 P34) ?v_16)) (or (or ?v_93 ?v_94) ?v_95)) (or (or P24 ?v_95) P5)) (or (or ?v_106 ?v_30) ?v_99)) (or (or ?v_97 ?v_10) ?v_98)) (or (or ?v_83 ?v_99) ?v_103)) (or (or ?v_98 ?v_202) ?v_100)) (or (or ?v_147 ?v_92) ?v_101)) (or (or ?v_57 P6) ?v_102)) (or (or ?v_103 ?v_88) ?v_104)) (or (or ?v_79 ?v_105) ?v_125)) (or (or ?v_179 ?v_106) ?v_55)) (or (or ?v_107 (not ?v_99)) ?v_22)) (or (or ?v_121 ?v_27) P38)) (or (or ?v_108 ?v_109) ?v_101)) (or (or P7 ?v_36) ?v_32)) (or (or ?v_110 ?v_111) P2)) (or (or ?v_112 ?v_129) ?v_82)) (or (or P11 ?v_195) ?v_114)) (or (or ?v_50 ?v_115) ?v_2)) (or (or ?v_101 ?v_29) ?v_116)) (or (or ?v_173 ?v_118) ?v_119)) (or (or P16 ?v_120) ?v_58)) (or (or P3 ?v_27) ?v_72)) (or (or ?v_10 ?v_165) P26)) (or (or ?v_152 P4) ?v_18)) (or ?v_208 ?v_51)) (or (or ?v_34 ?v_121) ?v_126)) (or (or ?v_123 ?v_94) ?v_108)) (or (or ?v_71 ?v_124) ?v_9)) (or (or ?v_57 ?v_44) ?v_144)) (or (or ?v_125 ?v_114) ?v_155)) (or (or ?v_126 ?v_127) ?v_43)) (or (or ?v_118 P35) ?v_79)) (or (or ?v_101 ?v_36) P4)) (or (or ?v_108 ?v_62) ?v_44)) (or (or ?v_128 ?v_5) ?v_84)) (or (or ?v_39 ?v_68) ?v_129)) (or (or ?v_67 ?v_53) P26)) (or (or ?v_46 P13) ?v_43)) (or (or ?v_88 ?v_108) P28)) (or (or ?v_123 ?v_81) ?v_40)) (or (or ?v_2 ?v_88) ?v_108)) (or (or ?v_103 ?v_130) P15)) (or (or ?v_31 ?v_139) P32)) (or (or ?v_70 ?v_88) P20)) (or (or P35 P24) ?v_132)) (or (or ?v_133 ?v_54) ?v_154)) (or (or ?v_3 ?v_145) ?v_161)) (or (or ?v_163 ?v_135) ?v_85)) (or (or ?v_17 ?v_52) ?v_54)) (or (or P11 ?v_119) ?v_115)) (or (or ?v_136 ?v_14) ?v_72)) (or (or ?v_137 ?v_105) ?v_138)) (or (or ?v_107 ?v_107) P23)) (or (or P35 ?v_129) P13)) (or (or ?v_139 P30) ?v_166)) (or (or ?v_140 ?v_14) ?v_97)) (or (or ?v_141 ?v_178) ?v_64)) (or (or ?v_160 ?v_3) P33)) (or (or ?v_78 ?v_142) ?v_130)) (or (or ?v_58 ?v_74) ?v_143)) (or (or ?v_170 ?v_144) P14)) (or (or P20 ?v_79) ?v_145)) (or (or ?v_95 ?v_89) ?v_146)) (or (or ?v_147 ?v_22) ?v_46)) (or (or P23 P7) P8)) (or (or ?v_26 ?v_180) ?v_139)) (or (or ?v_56 ?v_133) ?v_104)) (or (or ?v_79 ?v_136) ?v_91)) (or (or ?v_148 ?v_5) ?v_33)) (or (or P10 ?v_121) ?v_90)) (or (or ?v_84 ?v_151) P22)) (or (or ?v_41 ?v_58) ?v_149)) (or (or ?v_142 ?v_4) ?v_14)) (or (or ?v_23 ?v_116) ?v_76)) (or (or ?v_91 ?v_87) ?v_57)) (or (or ?v_112 ?v_66) ?v_150)) (or (or ?v_19 P27) ?v_14)) (or (or ?v_24 ?v_33) P1)) (or (or ?v_75 ?v_151) ?v_15)) (or (or ?v_152 ?v_36) ?v_44)) (or (or ?v_76 ?v_153) ?v_154)) (or (or ?v_123 P27) P21)) (or (or ?v_45 P21) ?v_158)) (or (or ?v_127 P27) ?v_55)) (or (or ?v_7 ?v_155) ?v_125)) (or (or P12 ?v_156) ?v_157)) (or (or ?v_191 ?v_61) ?v_79)) (or (or ?v_26 ?v_57) ?v_194)) (or (or ?v_141 ?v_146) ?v_158)) (or (or ?v_52 ?v_44) ?v_138)) (or (or ?v_159 ?v_91) ?v_37)) (or (or ?v_160 ?v_161) ?v_148)) (or (or P30 ?v_160) ?v_162)) (or (or ?v_167 ?v_29) ?v_119)) (or (or ?v_141 ?v_87) ?v_100)) (or (or ?v_24 ?v_138) ?v_99)) (or (or ?v_163 P38) P12)) (or (or ?v_177 ?v_6) ?v_113)) (or (or ?v_63 ?v_123) ?v_106)) (or (or P2 ?v_102) ?v_196)) (or (or ?v_168 P13) ?v_164)) (or (or ?v_103 ?v_165) ?v_111)) (or (or ?v_55 P8) ?v_147)) (or (or ?v_166 ?v_167) ?v_157)) (or (or P21 ?v_93) ?v_16)) (or (or ?v_168 ?v_78) ?v_115)) (or (or ?v_85 ?v_41) ?v_57)) (or (or ?v_22 ?v_82) ?v_100)) (or (or ?v_144 P25) ?v_78)) (or (or P11 ?v_24) ?v_124)) (or (or P5 ?v_16) ?v_93)) (or (or ?v_41 ?v_65) ?v_107)) (or (or ?v_169 ?v_11) ?v_55)) (or (or ?v_39 ?v_146) ?v_127)) (or (or ?v_6 ?v_158) ?v_114)) (or (or ?v_170 ?v_171) ?v_90)) (or (or P23 ?v_129) ?v_36)) (or (or ?v_41 ?v_103) ?v_63)) (or (or ?v_4 ?v_34) ?v_172)) (or (or P13 P27) ?v_75)) (or (or P20 ?v_173) ?v_148)) (or (or ?v_23 ?v_112) ?v_109)) (or (or P11 ?v_3) ?v_45)) (or (or ?v_174 ?v_117) ?v_111)) (or (or ?v_83 ?v_53) ?v_1)) (or (or ?v_68 ?v_160) ?v_175)) (or (or P1 ?v_24) P34)) (or (or ?v_175 ?v_124) ?v_20)) (or (or ?v_18 ?v_95) ?v_107)) (or (or P27 ?v_106) ?v_23)) (or (or ?v_79 ?v_122) ?v_176)) (or (or ?v_95 P15) ?v_71)) (or (or ?v_177 ?v_81) P33)) (or (or ?v_46 ?v_116) ?v_61)) (or (or ?v_146 ?v_65) P20)) (or (or ?v_146 ?v_152) ?v_178)) (or (or P2 P33) ?v_179)) (or (or P7 ?v_180) ?v_112)) (or (or ?v_166 ?v_104) ?v_181)) (or (or ?v_159 ?v_68) ?v_54)) (or (or ?v_121 ?v_131) ?v_22)) (or (or ?v_115 P23) ?v_84)) (or (or ?v_39 ?v_111) ?v_119)) (or (or ?v_32 ?v_120) ?v_111)) (or (or ?v_78 ?v_184) ?v_159)) (or (or ?v_71 ?v_72) ?v_35)) (or (or ?v_67 ?v_190) ?v_183)) (or (or ?v_175 ?v_64) ?v_184)) (or (or ?v_184 ?v_185) P27)) (or (or ?v_86 P2) ?v_115)) (or (or ?v_34 ?v_138) P6)) (or (or ?v_55 ?v_73) ?v_36)) (or (or ?v_122 ?v_82) P24)) (or (or ?v_136 P33) ?v_179)) (or (or ?v_10 ?v_132) ?v_186)) (or (or ?v_37 ?v_149) ?v_181)) (or (or ?v_162 ?v_13) P0)) (or (or ?v_162 ?v_111) ?v_187)) (or (or ?v_39 P22) ?v_146)) (or (or ?v_55 ?v_14) ?v_188)) (or (or P34 ?v_74) ?v_171)) (or (or ?v_179 ?v_184) ?v_106)) (or (or ?v_163 ?v_189) ?v_137)) (or (or P12 ?v_87) ?v_52)) (or (or ?v_40 ?v_84) ?v_190)) (or (or ?v_14 ?v_140) ?v_168)) (or (or ?v_105 ?v_117) ?v_80)) (or (or ?v_156 ?v_138) ?v_187)) (or (or ?v_24 ?v_136) ?v_148)) (or (or ?v_110 ?v_86) P30)) (or (or ?v_83 ?v_143) ?v_180)) (or (or ?v_124 ?v_116) ?v_145)) (or (or P17 ?v_14) ?v_180)) (or (or ?v_187 ?v_84) ?v_177)) (or (or P12 ?v_191) ?v_110)) (or (or ?v_171 ?v_186) ?v_191)) (or (or P2 ?v_100) ?v_192)) (or (or ?v_118 ?v_95) ?v_193)) (or (or ?v_186 ?v_108) ?v_99)) (or (or ?v_172 ?v_167) ?v_137)) (or (or P28 ?v_42) ?v_33)) (or (or ?v_140 ?v_158) ?v_60)) (or (or ?v_52 ?v_112) ?v_122)) (or (or P36 ?v_194) ?v_146)) (or (or ?v_101 ?v_156) ?v_142)) (or (or ?v_143 ?v_195) ?v_191)) (or (or P32 ?v_70) ?v_109)) (or (or ?v_196 ?v_142) ?v_54)) (or (or ?v_197 ?v_135) ?v_140)) (or (or ?v_71 ?v_104) ?v_188)) (or (or ?v_52 ?v_26) ?v_20)) (or (or ?v_33 ?v_138) ?v_63)) (or (or ?v_160 ?v_134) ?v_62)) (or (or P36 ?v_149) ?v_36)) (or (or ?v_52 ?v_68) ?v_18)) (or (or P7 ?v_26) ?v_94)) (or (or ?v_53 ?v_103) ?v_124)) (or (or ?v_79 ?v_116) P25)) (or (or ?v_52 ?v_61) P0)) (or (or P26 ?v_195) ?v_74)) (or (or ?v_149 ?v_2) ?v_80)) (or (or ?v_198 ?v_144) ?v_93)) (or (or ?v_181 ?v_52) ?v_6)) (or (or ?v_188 ?v_124) ?v_67)) (or (or ?v_73 ?v_198) ?v_159)) (or (or ?v_110 ?v_139) ?v_183)) (or (or ?v_180 ?v_117) ?v_177)) (or (or P9 ?v_23) ?v_42)) (or (or ?v_44 ?v_30) ?v_199)) (or (or ?v_94 ?v_99) ?v_123)) (or (or ?v_42 ?v_17) ?v_26)) (or (or ?v_55 ?v_163) ?v_57)) (or (or ?v_200 ?v_52) ?v_72)) (or (or ?v_58 P12) ?v_71)) (or (or P25 ?v_201) ?v_139)) (or (or ?v_169 ?v_202) ?v_94)) (or (or P19 P8) ?v_195)) (or (or P15 ?v_177) ?v_15)) (or (or P4 ?v_130) ?v_177)) (or (or ?v_41 ?v_177) ?v_87)) (or (or ?v_55 ?v_203) ?v_78)) (or (or ?v_201 ?v_133) ?v_117)) (or (or P17 P24) ?v_196)) (or (or ?v_178 ?v_204) ?v_76)) (or (or ?v_157 ?v_186) ?v_191)) (or (or ?v_182 ?v_62) P35)) (or (or ?v_106 ?v_131) ?v_68)) (or (or ?v_159 ?v_61) ?v_67)) (or (or ?v_62 P26) P33)) (or (or ?v_82 P35) ?v_50)) (or (or ?v_90 ?v_149) ?v_66)) (or (or ?v_59 ?v_62) ?v_120)) (or (or ?v_184 ?v_128) ?v_118)) (or (or ?v_108 ?v_154) ?v_88)) (or (or ?v_53 P6) ?v_128)) (or (or ?v_121 ?v_16) ?v_131)) (or (or ?v_89 P33) P38)) (or (or ?v_35 ?v_45) ?v_133)) (or (or ?v_155 ?v_142) P17)) (or (or ?v_5 ?v_73) ?v_42)) (or (or ?v_167 ?v_57) ?v_24)) (or (or ?v_135 ?v_198) ?v_147)) (or (or ?v_157 ?v_183) P11)) (or (or P14 ?v_142) ?v_169)) (or (or ?v_104 P36) ?v_168)) (or (or ?v_127 ?v_2) P38)) (or (or ?v_95 ?v_4) ?v_101)) (or (or ?v_197 ?v_65) ?v_86)) (or (or P31 ?v_136) P21)) (or (or P6 ?v_2) P22)) (or (or ?v_43 ?v_205) P35)) (or (or ?v_61 P21) ?v_2)) (or (or P29 ?v_93) ?v_122)) (or (or ?v_55 ?v_95) ?v_121)) (or (or ?v_63 P6) ?v_143)) (or (or ?v_9 P16) P3)) (or (or ?v_146 P37) ?v_4)) (or (or ?v_122 ?v_202) ?v_33)) (or (or ?v_75 ?v_111) ?v_154)) (or (or ?v_123 P2) ?v_88)) (or (or ?v_120 ?v_70) ?v_138)) (or (or ?v_120 ?v_58) ?v_178)) (or (or ?v_144 ?v_50) ?v_193)) (or (or ?v_107 P21) P26)) (or (or ?v_164 ?v_116) P11)) (or (or ?v_56 ?v_82) ?v_120)) (or (or P35 ?v_22) ?v_197)) (or (or P20 P12) ?v_98)) (or (or P17 ?v_138) P24)) (or (or ?v_145 ?v_94) ?v_52)) (or (or P16 P19) ?v_166)) (or (or ?v_83 ?v_164) ?v_177)) (or (or ?v_62 ?v_190) ?v_194)) (or (or ?v_150 ?v_94) P12)) (or (or ?v_20 ?v_206) P8)) (or (or ?v_37 ?v_131) ?v_184)) (or (or ?v_173 ?v_104) ?v_0)) (or (or ?v_170 ?v_36) P32)) (or (or ?v_170 P9) ?v_163)) (or (or ?v_110 ?v_205) ?v_62)) (or (or ?v_68 ?v_85) ?v_172)) (or (or ?v_53 ?v_46) P9)) (or (or ?v_143 P26) ?v_164)) (or (or ?v_104 ?v_175) ?v_170)) (or (or ?v_196 ?v_23) ?v_77)) (or (or P34 ?v_119) ?v_172)) (or (or ?v_62 ?v_182) ?v_43)) (or (or ?v_163 ?v_117) P31)) (or (or ?v_77 ?v_32) ?v_10)) (or (or ?v_14 ?v_18) P23)) (or (or ?v_100 ?v_19) ?v_158)) (or (or ?v_178 ?v_68) P10)) (or (or P3 ?v_63) P33)) (or (or ?v_62 P39) ?v_205)) (or (or P32 ?v_206) ?v_154)) (or (or P34 ?v_29) ?v_200)) (or (or ?v_27 ?v_195) ?v_135)) (or (or ?v_151 ?v_42) ?v_195)) (or (or ?v_129 ?v_113) ?v_147)) (or (or P11 ?v_11) ?v_156)) (or (or ?v_119 ?v_201) P28)) (or (or ?v_118 ?v_107) ?v_73)) (or (or P2 ?v_90) ?v_122)) (or (or ?v_24 P39) ?v_32)) (or (or ?v_117 ?v_64) P28)) (or (or ?v_205 ?v_135) P7)) (or (or ?v_76 ?v_60) ?v_190)) (or (or ?v_89 ?v_130) ?v_199)) (or (or P29 ?v_157) ?v_199)) (or (or ?v_198 P28) ?v_90)) (or (or ?v_93 ?v_156) ?v_150)) (or (or P37 ?v_66) P24)) (or (or P31 ?v_5) ?v_151)) (or (or P19 P21) P39)) (or (or ?v_207 ?v_68) ?v_62)) (or ?v_208 ?v_17)) (or (or ?v_82 ?v_114) P8)) (or (or P39 ?v_95) ?v_45)) (or (or ?v_204 ?v_78) ?v_26)) (or (or ?v_185 ?v_191) ?v_5)) (or (or ?v_5 P34) P26)) (or (or ?v_39 ?v_86) ?v_80)) (or (or ?v_165 P14) ?v_128)) (or (or ?v_192 ?v_135) ?v_74)) (or (or ?v_105 ?v_126) ?v_6)) (or (or ?v_71 ?v_175) ?v_58)) (or (or P10 ?v_141) ?v_179)) (or (or ?v_172 ?v_32) ?v_64)) (or (or ?v_37 ?v_172) ?v_62)) (or (or P5 ?v_22) ?v_197)) (or (or ?v_45 ?v_63) ?v_44)) (or (or ?v_119 ?v_55) ?v_45)) (or (or ?v_121 P9) P34)) (or (or ?v_61 ?v_39) ?v_67)) (or (or P30 ?v_203) ?v_85)) (or (or ?v_50 ?v_134) ?v_85)) (or (or ?v_41 P22) ?v_84)) (or (or ?v_178 ?v_52) ?v_93)) (or (or ?v_77 ?v_34) ?v_169)) (or (or ?v_131 ?v_203) ?v_109)) (or (or ?v_115 ?v_70) ?v_206)) (or (or ?v_204 ?v_83) P7)) (or (or P3 ?v_81) P0)) (or (or ?v_191 P10) P34)) (or (or ?v_122 ?v_3) P38)) (or (or ?v_194 ?v_106) ?v_161)) (or (or ?v_64 P15) ?v_33)) (or (or ?v_104 ?v_154) P9)) (or (or ?v_103 ?v_172) ?v_177)) (or (or ?v_55 ?v_115) ?v_18)) (or (or ?v_178 ?v_27) ?v_144)) (or (or P35 ?v_197) ?v_94)) (or (or ?v_5 ?v_161) ?v_109)) (or (or ?v_99 ?v_26) ?v_137)) (or (or ?v_198 ?v_50) ?v_17)) (or (or P1 P27) P13)) (or (or P15 ?v_14) ?v_6)) (or (or ?v_118 ?v_3) ?v_205)) (or (or ?v_18 ?v_87) ?v_45)) (or (or P0 ?v_134) ?v_81)) (or (or ?v_125 ?v_199) ?v_19)) (or (or ?v_143 ?v_173) ?v_76)) (or (or ?v_188 ?v_103) ?v_141)) (or (or ?v_183 ?v_183) ?v_137)) (or (or ?v_82 ?v_197) ?v_114)) (or (or P31 ?v_75) ?v_31)) (or (or ?v_35 ?v_62) ?v_58)) (or (or ?v_66 P32) ?v_196)) (or (or ?v_66 ?v_133) ?v_79)) (or (or P0 ?v_87) ?v_159)) (or (or ?v_172 ?v_168) ?v_120)) (or (or P35 ?v_63) P23)) (or (or P36 ?v_130) ?v_122)) (or (or ?v_56 P23) ?v_202)) (or (or P17 ?v_89) P29)) (or (or ?v_119 ?v_182) ?v_89)) (or (or ?v_88 P7) ?v_157)) (or (or ?v_191 ?v_75) ?v_65)) (or (or ?v_151 P18) ?v_155)) (or (or ?v_183 ?v_181) P11)) (or (or ?v_167 ?v_181) ?v_97)) (or (or ?v_4 ?v_66) P18)) (or (or ?v_106 ?v_150) ?v_158)) (or (or ?v_154 ?v_110) ?v_143)) (or (or ?v_14 ?v_33) P1)) (or (or ?v_126 ?v_155) ?v_59)) (or (or ?v_126 ?v_179) ?v_123)) (or (or ?v_93 ?v_201) ?v_72)) (or (or ?v_72 ?v_87) ?v_74)) (or (or ?v_190 ?v_138) ?v_191)) (or (or ?v_113 ?v_83) ?v_62)) (or (or ?v_57 P22) ?v_80)))))))))))))))))))))))))))))
(check-sat)
(exit)
